
Gurobi 9.5.0 (win64) logging started Tue Dec  7 12:39:17 2021

Set parameter LogFile to value "../results/logs/log_2021_12_07_12_26.csv_6_5.log"
Set parameter Method to value 3
Gurobi Optimizer version 9.5.0 build v9.5.0rc5 (win64)
Thread count: 6 physical cores, 12 logical processors, using up to 12 threads
Optimize a model with 1039 rows, 9882 columns and 16749 nonzeros
Model fingerprint: 0x173122d7
Variable types: 4941 continuous, 4941 integer (4941 binary)
Coefficient statistics:
  Matrix range     [1e+00, 6e+00]
  Objective range  [1e+00, 1e+00]
  Bounds range     [1e+00, 1e+00]
  RHS range        [1e+00, 5e+00]
Found heuristic solution: objective -0.0000000
Presolve removed 754 rows and 9454 columns
Presolve time: 0.06s
Presolved: 285 rows, 428 columns, 2019 nonzeros
Extracted 84 lazy constraints
Variable types: 255 continuous, 173 integer (173 binary)

Root relaxation: objective 1.720000e+02, 69 iterations, 0.00 seconds (0.00 work units)

    Nodes    |    Current Node    |     Objective Bounds      |     Work
 Expl Unexpl |  Obj  Depth IntInf | Incumbent    BestBd   Gap | It/Node Time

     0     0   68.52637    0  122   -0.00000   68.52637      -     -    0s
     0     0   24.91464    0   46   -0.00000   24.91464      -     -    0s
     0     0   24.74648    0   45   -0.00000   24.74648      -     -    0s
     0     0   24.70912    0   46   -0.00000   24.70912      -     -    0s
     0     0   22.09436    0   21   -0.00000   22.09436      -     -    0s
     0     0   21.74913    0   20   -0.00000   21.74913      -     -    0s
     0     0   21.60425    0   23   -0.00000   21.60425      -     -    0s
     0     0   21.26449    0   19   -0.00000   21.26449      -     -    0s
     0     0   21.06590    0   19   -0.00000   21.06590      -     -    0s
     0     0   20.86185    0   20   -0.00000   20.86185      -     -    0s
     0     0   20.81670    0   18   -0.00000   20.81670      -     -    0s
     0     0   20.55006    0   16   -0.00000   20.55006      -     -    0s
     0     0   20.45932    0   21   -0.00000   20.45932      -     -    0s
     0     0   20.29786    0   18   -0.00000   20.29786      -     -    0s
     0     0   20.29786    0   18   -0.00000   20.29786      -     -    0s
     0     2   20.29786    0   18   -0.00000   20.29786      -     -    0s
H   35    23                       2.0000000   19.15672   858%  28.1    0s
*   91    28              14      17.0000000   19.15672  12.7%  20.3    0s

Cutting planes:
  Gomory: 63
  Lift-and-project: 9
  Implied bound: 18
  MIR: 140
  RLT: 19
  Relax-and-lift: 9
  Lazy constraints: 83

Explored 125 nodes (3123 simplex iterations) in 0.28 seconds (0.16 work units)
Thread count was 12 (of 12 available processors)

Solution count 3: 17 2 -0 

Optimal solution found (tolerance 1.00e-04)
Best objective 1.700000000000e+01, best bound 1.700000000000e+01, gap 0.0000%
